data;
param T := 14000;
param N := 21;
param W := 
[0] 3392
[1] 8856
[2] 7506
[3] 1904
[4] 7914
[5] 613
[6] 5942
[7] 1029
[8] 1396
[9] 8713
[10] 9082
[11] 2692
[12] 402
[13] 1843
[14] 1078
[15] 2879
[16] 5494
[17] 2744
[18] 4280
[19] 6790
[20] 2194
;
end;